N = 13;
H = 5;
T = 2;

avail = array3d(1..N, 1..H, 1..T, [8, 3, 3, 5, 4, 4, 0, 1, 3, 0, 7, 6, 6, 4, 7, 10, 0, 5, 6, 6, 6, 6, 6, 1, 10, 3, 8, 7, 9, 2, 7, 6, 7, 5, 2, 6, 10, 6, 6, 4, 6, 7, 3, 10, 4, 6, 9, 9, 10, 9, 6, 1, 2, 0, 9, 1, 7, 3, 0, 10, 10, 10, 7, 0, 1, 3, 2, 2, 5, 1, 3, 4, 3, 10, 0, 2, 6, 1, 5, 4, 9, 2, 1, 2, 7, 8, 3, 0, 3, 2, 1, 5, 4, 1, 3, 1, 8, 6, 6, 9, 2, 5, 8, 7, 9, 10, 8, 2, 1, 1, 8, 2, 0, 4, 9, 7, 5, 10, 10, 0, 3, 0, 9, 1, 7, 4, 2, 4, 10, 5]);

r = array2d(1..H, 1..T, [6, 0, 1, 3, 4, 3, 4, 2, 4, 0]);
